Maximize
F - f1 - f2

Subject to
F - 4y148 - 4y204 - 8y58 - 8y135 - 6y189 - 2y29 - 8y206 - 8y187 - 8y88 - 4y99 - 6y3 - 6y66 - 2y16 - 2y133 - 4y149 - 2y177 - 2y48 - 8y205 = 0
f1 - 0.007182s148 - 0.007182s204 - 0.007182s58 - 0.007182s135 - 0.007182s189 - 0.007182s29 - 0.007182s206 - 0.007182s187 - 0.007182s88 - 0.007182s99 - 0.007182s3 - 0.007182s66 - 0.007182s16 - 0.007182s133 - 0.007182s149 - 0.007182s177 - 0.007182s48 - 0.007182s205  = 0
f2 - 2.82y148 - 2.88y204 - 2.25y58 - 2.88y135 - 3.12y189 - 3.03y29 - 1.62y206 - 1.49y187 - 1.42y88 - 2.89y99 - 1.29y3 - 1.25y66 - 1.00y16 - 0.06y133 - 0.24y149 - 0.19y177 - 0.16y48 - 0.26y205 = 0

x104x148x1 + x104x135x1 + x104x189x1 + x104x29x1 + x104x206x1 + x104x187x1 + x104x88x1 + x104x66x1 + x104x149x1 + x104x177x1 + x104x205x1 
<= 2
x22x135x1 + x22x189x1 + x22x29x1 + x22x206x1 + x22x187x1 + x22x88x1 + x22x66x1 + x22x149x1 + x22x177x1 + x22x205x1 
<= 2
x169x206x1 + x169x187x1 + x169x88x1 + x169x66x1 + x169x149x1 + x169x177x1 + x169x205x1 
<= 2
x170x148x1 + x170x135x1 + x170x189x1 + x170x29x1 + x170x206x1 + x170x187x1 + x170x88x1 + x170x66x1 + x170x149x1 + x170x177x1 + x170x205x1 
<= 1
x156x148x1 + x156x135x1 + x156x189x1 + x156x29x1 + x156x206x1 + x156x187x1 + x156x88x1 + x156x66x1 + x156x149x1 + x156x177x1 + x156x205x1 
<= 1
x4x204x2 + x4x58x2 + x4x135x2 + x4x187x2 + x4x88x2 + x4x99x2 + x4x3x2 + x4x16x2 + x4x133x2 + x4x48x2 
<= 2
x109x204x2 + x109x58x2 + x109x135x2 + x109x187x2 + x109x88x2 + x109x99x2 + x109x3x2 + x109x16x2 + x109x133x2 + x109x48x2 
<= 2
x110x204x2 + x110x58x2 + x110x135x2 + x110x187x2 + x110x88x2 + x110x99x2 + x110x3x2 + x110x16x2 + x110x133x2 + x110x48x2 
<= 1
x82x204x2 + x82x58x2 + x82x135x2 + x82x187x2 + x82x88x2 + x82x99x2 + x82x3x2 + x82x16x2 + x82x133x2 + x82x48x2 
<= 1
x156x204x2 + x156x58x2 + x156x135x2 + x156x187x2 + x156x88x2 + x156x99x2 + x156x3x2 + x156x16x2 + x156x133x2 + x156x48x2 
<= 1
x174x204x2 + x174x58x2 + x174x135x2 + x174x187x2 + x174x88x2 + x174x99x2 + x174x3x2 + x174x16x2 + x174x133x2 + x174x48x2 
<= 1

x165x148x3 + x165x204x3 + x165x58x3 + x165x189x3 + x165x29x3 + x165x206x3 + x165x99x3 + x165x3x3 + x165x133x3 + x165x205x3 
<= 2
x84x58x3 + x84x29x3 + x84x206x3 + x84x99x3 + x84x3x3 + x84x133x3 + x84x205x3 
<= 2
x170x148x3 + x170x204x3 + x170x58x3 + x170x189x3 + x170x29x3 + x170x206x3 + x170x99x3 + x170x3x3 + x170x133x3 + x170x205x3 
<= 1
x18x148x3 + x18x204x3 + x18x58x3 + x18x189x3 + x18x29x3 + x18x206x3 + x18x99x3 + x18x3x3 + x18x133x3 + x18x205x3 
<= 2
x174x148x3 + x174x204x3 + x174x58x3 + x174x189x3 + x174x29x3 + x174x206x3 + x174x99x3 + x174x3x3 + x174x133x3 + x174x205x3 
<= 1

x104x148x1 + x170x148x1 + x156x148x1 
- x148x0x1
- x148x135x1 - x148x189x1 - x148x29x1 - x148x206x1 - x148x187x1 - x148x88x1 - x148x66x1 - x148x149x1 - x148x177x1 - x148x205x1 
= 0

x165x148x3 + x170x148x3 + x18x148x3 + x174x148x3 
- x148x0x3
- x148x204x3 - x148x189x3 - x148x29x3 - x148x206x3 - x148x99x3 - x148x3x3 - x148x133x3 - x148x205x3 
= 0


x4x204x2 + x109x204x2 + x110x204x2 + x82x204x2 + x156x204x2 + x174x204x2 
- x204x0x2
- x204x135x2 - x204x187x2 - x204x88x2 - x204x99x2 - x204x3x2 - x204x16x2 - x204x133x2 - x204x48x2 
= 0
x165x204x3 + x170x204x3 + x18x204x3 + x174x204x3 + x148x204x3 
- x204x0x3
- x204x189x3 - x204x29x3 - x204x206x3 - x204x99x3 - x204x3x3 - x204x133x3 - x204x205x3 
= 0


x4x58x2 + x109x58x2 + x110x58x2 + x82x58x2 + x156x58x2 + x174x58x2 
- x58x0x2
- x58x187x2 - x58x88x2 - x58x99x2 - x58x3x2 - x58x16x2 - x58x133x2 - x58x48x2 
= 0
x165x58x3 + x84x58x3 + x170x58x3 + x18x58x3 + x174x58x3 
- x58x0x3
- x58x206x3 - x58x99x3 - x58x3x3 - x58x133x3 - x58x205x3 
= 0

x104x135x1 + x22x135x1 + x170x135x1 + x156x135x1 + x148x135x1 
- x135x0x1
- x135x29x1 - x135x187x1 - x135x88x1 - x135x66x1 - x135x149x1 - x135x177x1 - x135x205x1 
= 0
x4x135x2 + x109x135x2 + x110x135x2 + x82x135x2 + x156x135x2 + x174x135x2 + x204x135x2 
- x135x0x2
- x135x187x2 - x135x88x2 - x135x99x2 - x135x3x2 - x135x16x2 - x135x133x2 - x135x48x2 
= 0


x104x189x1 + x22x189x1 + x170x189x1 + x156x189x1 + x148x189x1 
- x189x0x1
- x189x29x1 - x189x88x1 - x189x66x1 - x189x149x1 - x189x177x1 - x189x205x1 
= 0

x165x189x3 + x170x189x3 + x18x189x3 + x174x189x3 + x148x189x3 + x204x189x3 
- x189x0x3
- x189x29x3 - x189x99x3 - x189x3x3 - x189x133x3 - x189x205x3 
= 0

x104x29x1 + x22x29x1 + x170x29x1 + x156x29x1 + x148x29x1 + x135x29x1 + x189x29x1 
- x29x0x1
- x29x149x1 - x29x177x1 - x29x205x1 
= 0

x165x29x3 + x84x29x3 + x170x29x3 + x18x29x3 + x174x29x3 + x148x29x3 + x204x29x3 + x189x29x3 
- x29x0x3
- x29x99x3 - x29x133x3 - x29x205x3 
= 0

x104x206x1 + x22x206x1 + x169x206x1 + x170x206x1 + x156x206x1 + x148x206x1 
- x206x0x1
- x206x187x1 - x206x88x1 - x206x66x1 - x206x149x1 - x206x177x1 - x206x205x1 
= 0

x165x206x3 + x84x206x3 + x170x206x3 + x18x206x3 + x174x206x3 + x148x206x3 + x204x206x3 + x58x206x3 
- x206x0x3
- x206x3x3 - x206x133x3 - x206x205x3 
= 0

x104x187x1 + x22x187x1 + x169x187x1 + x170x187x1 + x156x187x1 + x148x187x1 + x135x187x1 + x206x187x1 
- x187x0x1
- x187x88x1 - x187x66x1 - x187x149x1 - x187x177x1 - x187x205x1 
= 0
x4x187x2 + x109x187x2 + x110x187x2 + x82x187x2 + x156x187x2 + x174x187x2 + x204x187x2 + x58x187x2 + x135x187x2 
- x187x0x2
- x187x88x2 - x187x3x2 - x187x16x2 - x187x133x2 - x187x48x2 
= 0


x104x88x1 + x22x88x1 + x169x88x1 + x170x88x1 + x156x88x1 + x148x88x1 + x135x88x1 + x189x88x1 + x206x88x1 + x187x88x1 
- x88x0x1
- x88x66x1 - x88x149x1 - x88x177x1 - x88x205x1 
= 0
x4x88x2 + x109x88x2 + x110x88x2 + x82x88x2 + x156x88x2 + x174x88x2 + x204x88x2 + x58x88x2 + x135x88x2 + x187x88x2 
- x88x0x2
- x88x3x2 - x88x16x2 - x88x133x2 - x88x48x2 
= 0



x4x99x2 + x109x99x2 + x110x99x2 + x82x99x2 + x156x99x2 + x174x99x2 + x204x99x2 + x58x99x2 + x135x99x2 
- x99x0x2
- x99x16x2 - x99x133x2 - x99x48x2 
= 0
x165x99x3 + x84x99x3 + x170x99x3 + x18x99x3 + x174x99x3 + x148x99x3 + x204x99x3 + x58x99x3 + x189x99x3 + x29x99x3 
- x99x0x3
- x99x133x3 - x99x205x3 
= 0


x4x3x2 + x109x3x2 + x110x3x2 + x82x3x2 + x156x3x2 + x174x3x2 + x204x3x2 + x58x3x2 + x135x3x2 + x187x3x2 + x88x3x2 
- x3x0x2
- x3x16x2 - x3x133x2 - x3x48x2 
= 0
x165x3x3 + x84x3x3 + x170x3x3 + x18x3x3 + x174x3x3 + x148x3x3 + x204x3x3 + x58x3x3 + x189x3x3 + x206x3x3 
- x3x0x3
- x3x133x3 - x3x205x3 
= 0

x104x66x1 + x22x66x1 + x169x66x1 + x170x66x1 + x156x66x1 + x148x66x1 + x135x66x1 + x189x66x1 + x206x66x1 + x187x66x1 + x88x66x1 
- x66x0x1
- x66x149x1 - x66x177x1 - x66x205x1 
= 0




x4x16x2 + x109x16x2 + x110x16x2 + x82x16x2 + x156x16x2 + x174x16x2 + x204x16x2 + x58x16x2 + x135x16x2 + x187x16x2 + x88x16x2 + x99x16x2 + x3x16x2 
- x16x0x2
- x16x133x2 - x16x48x2 
= 0



x4x133x2 + x109x133x2 + x110x133x2 + x82x133x2 + x156x133x2 + x174x133x2 + x204x133x2 + x58x133x2 + x135x133x2 + x187x133x2 + x88x133x2 + x99x133x2 + x3x133x2 + x16x133x2 
- x133x0x2
- x133x48x2 
= 0
x165x133x3 + x84x133x3 + x170x133x3 + x18x133x3 + x174x133x3 + x148x133x3 + x204x133x3 + x58x133x3 + x189x133x3 + x29x133x3 + x206x133x3 + x99x133x3 + x3x133x3 
- x133x0x3

= 0

x104x149x1 + x22x149x1 + x169x149x1 + x170x149x1 + x156x149x1 + x148x149x1 + x135x149x1 + x189x149x1 + x29x149x1 + x206x149x1 + x187x149x1 + x88x149x1 + x66x149x1 
- x149x0x1
- x149x205x1 
= 0



x104x177x1 + x22x177x1 + x169x177x1 + x170x177x1 + x156x177x1 + x148x177x1 + x135x177x1 + x189x177x1 + x29x177x1 + x206x177x1 + x187x177x1 + x88x177x1 + x66x177x1 
- x177x0x1
- x177x205x1 
= 0




x4x48x2 + x109x48x2 + x110x48x2 + x82x48x2 + x156x48x2 + x174x48x2 + x204x48x2 + x58x48x2 + x135x48x2 + x187x48x2 + x88x48x2 + x99x48x2 + x3x48x2 + x16x48x2 + x133x48x2 
- x48x0x2

= 0


x104x205x1 + x22x205x1 + x169x205x1 + x170x205x1 + x156x205x1 + x148x205x1 + x135x205x1 + x189x205x1 + x29x205x1 + x206x205x1 + x187x205x1 + x88x205x1 + x66x205x1 + x149x205x1 + x177x205x1 
- x205x0x1

= 0

x165x205x3 + x84x205x3 + x170x205x3 + x18x205x3 + x174x205x3 + x148x205x3 + x204x205x3 + x58x205x3 + x189x205x3 + x29x205x3 + x206x205x3 + x99x205x3 + x3x205x3 
- x205x0x3

= 0

1y148 - x104x148x1 - x170x148x1 - x156x148x1 = 0
1y148 - x165x148x3 - x170x148x3 - x18x148x3 - x174x148x3 = 0
1y204 - x4x204x2 - x109x204x2 - x110x204x2 - x82x204x2 - x156x204x2 - x174x204x2 = 0
1y204 - x165x204x3 - x170x204x3 - x18x204x3 - x174x204x3 - x148x204x3 = 0
1y58 - x4x58x2 - x109x58x2 - x110x58x2 - x82x58x2 - x156x58x2 - x174x58x2 = 0
1y58 - x165x58x3 - x84x58x3 - x170x58x3 - x18x58x3 - x174x58x3 = 0
1y135 - x104x135x1 - x22x135x1 - x170x135x1 - x156x135x1 - x148x135x1 = 0
1y135 - x4x135x2 - x109x135x2 - x110x135x2 - x82x135x2 - x156x135x2 - x174x135x2 - x204x135x2 = 0
1y189 - x104x189x1 - x22x189x1 - x170x189x1 - x156x189x1 - x148x189x1 = 0
1y189 - x165x189x3 - x170x189x3 - x18x189x3 - x174x189x3 - x148x189x3 - x204x189x3 = 0
1y29 - x104x29x1 - x22x29x1 - x170x29x1 - x156x29x1 - x148x29x1 - x135x29x1 - x189x29x1 = 0
1y29 - x165x29x3 - x84x29x3 - x170x29x3 - x18x29x3 - x174x29x3 - x148x29x3 - x204x29x3 - x189x29x3 = 0
1y206 - x104x206x1 - x22x206x1 - x169x206x1 - x170x206x1 - x156x206x1 - x148x206x1 = 0
1y206 - x165x206x3 - x84x206x3 - x170x206x3 - x18x206x3 - x174x206x3 - x148x206x3 - x204x206x3 - x58x206x3 = 0
1y187 - x104x187x1 - x22x187x1 - x169x187x1 - x170x187x1 - x156x187x1 - x148x187x1 - x135x187x1 - x206x187x1 = 0
1y187 - x4x187x2 - x109x187x2 - x110x187x2 - x82x187x2 - x156x187x2 - x174x187x2 - x204x187x2 - x58x187x2 - x135x187x2 = 0
1y88 - x104x88x1 - x22x88x1 - x169x88x1 - x170x88x1 - x156x88x1 - x148x88x1 - x135x88x1 - x189x88x1 - x206x88x1 - x187x88x1 = 0
1y88 - x4x88x2 - x109x88x2 - x110x88x2 - x82x88x2 - x156x88x2 - x174x88x2 - x204x88x2 - x58x88x2 - x135x88x2 - x187x88x2 = 0
1y99 - x4x99x2 - x109x99x2 - x110x99x2 - x82x99x2 - x156x99x2 - x174x99x2 - x204x99x2 - x58x99x2 - x135x99x2 = 0
1y99 - x165x99x3 - x84x99x3 - x170x99x3 - x18x99x3 - x174x99x3 - x148x99x3 - x204x99x3 - x58x99x3 - x189x99x3 - x29x99x3 = 0
1y3 - x4x3x2 - x109x3x2 - x110x3x2 - x82x3x2 - x156x3x2 - x174x3x2 - x204x3x2 - x58x3x2 - x135x3x2 - x187x3x2 - x88x3x2 = 0
1y3 - x165x3x3 - x84x3x3 - x170x3x3 - x18x3x3 - x174x3x3 - x148x3x3 - x204x3x3 - x58x3x3 - x189x3x3 - x206x3x3 = 0
2y66 - x104x66x1 - x22x66x1 - x169x66x1 - x170x66x1 - x156x66x1 - x148x66x1 - x135x66x1 - x189x66x1 - x206x66x1 - x187x66x1 - x88x66x1 = 0
2y16 - x4x16x2 - x109x16x2 - x110x16x2 - x82x16x2 - x156x16x2 - x174x16x2 - x204x16x2 - x58x16x2 - x135x16x2 - x187x16x2 - x88x16x2 - x99x16x2 - x3x16x2 = 0
1y133 - x4x133x2 - x109x133x2 - x110x133x2 - x82x133x2 - x156x133x2 - x174x133x2 - x204x133x2 - x58x133x2 - x135x133x2 - x187x133x2 - x88x133x2 - x99x133x2 - x3x133x2 - x16x133x2 = 0
1y133 - x165x133x3 - x84x133x3 - x170x133x3 - x18x133x3 - x174x133x3 - x148x133x3 - x204x133x3 - x58x133x3 - x189x133x3 - x29x133x3 - x206x133x3 - x99x133x3 - x3x133x3 = 0
2y149 - x104x149x1 - x22x149x1 - x169x149x1 - x170x149x1 - x156x149x1 - x148x149x1 - x135x149x1 - x189x149x1 - x29x149x1 - x206x149x1 - x187x149x1 - x88x149x1 - x66x149x1 = 0
2y177 - x104x177x1 - x22x177x1 - x169x177x1 - x170x177x1 - x156x177x1 - x148x177x1 - x135x177x1 - x189x177x1 - x29x177x1 - x206x177x1 - x187x177x1 - x88x177x1 - x66x177x1 = 0
2y48 - x4x48x2 - x109x48x2 - x110x48x2 - x82x48x2 - x156x48x2 - x174x48x2 - x204x48x2 - x58x48x2 - x135x48x2 - x187x48x2 - x88x48x2 - x99x48x2 - x3x48x2 - x16x48x2 - x133x48x2 = 0
1y205 - x104x205x1 - x22x205x1 - x169x205x1 - x170x205x1 - x156x205x1 - x148x205x1 - x135x205x1 - x189x205x1 - x29x205x1 - x206x205x1 - x187x205x1 - x88x205x1 - x66x205x1 - x149x205x1 - x177x205x1 = 0
1y205 - x165x205x3 - x84x205x3 - x170x205x3 - x18x205x3 - x174x205x3 - x148x205x3 - x204x205x3 - x58x205x3 - x189x205x3 - x29x205x3 - x206x205x3 - x99x205x3 - x3x205x3 = 0

s104 - s148 + 6.629454z104z148z1 <= 5.20
s104 - s135 + 6.637275z104z135z1 <= 5.20
s104 - s189 + 6.616306z104z189z1 <= 5.20
s104 - s29 + 6.649319z104z29z1 <= 5.20
s104 - s206 + 6.700238z104z206z1 <= 5.20
s104 - s187 + 6.732640z104z187z1 <= 5.20
s104 - s88 + 6.717186z104z88z1 <= 5.20
s104 - s66 + 6.761175z104z66z1 <= 5.20
s104 - s149 + 7.159219z104z149z1 <= 5.20
s104 - s177 + 7.159774z104z177z1 <= 5.20
s104 - s205 + 7.165882z104z205z1 <= 5.20
s4 - s204 + 6.560027z4z204z2 <= 4.96
s4 - s58 + 6.307011z4z58z2 <= 4.96
s4 - s135 + 6.574562z4z135z2 <= 4.96
s4 - s187 + 6.440770z4z187z2 <= 4.96
s4 - s88 + 6.391388z4z88z2 <= 4.96
s4 - s99 + 6.632864z4z99z2 <= 4.96
s4 - s3 + 6.431985z4z3z2 <= 4.96
s4 - s16 + 6.378313z4z16z2 <= 4.96
s4 - s133 + 6.815922z4z133z2 <= 4.96
s4 - s48 + 6.819459z4z48z2 <= 4.96
s165 - s148 + 6.402820z165z148z3 <= 4.90
s165 - s204 + 6.405617z165z204z3 <= 4.90
s165 - s58 + 6.178601z165z58z3 <= 4.90
s165 - s189 + 6.424488z165z189z3 <= 4.90
s165 - s29 + 6.453571z165z29z3 <= 4.90
s165 - s206 + 6.315811z165z206z3 <= 4.90
s165 - s99 + 6.480147z165z99z3 <= 4.90
s165 - s3 + 6.353093z165z3z3 <= 4.90
s165 - s133 + 6.766952z165z133z3 <= 4.90
s165 - s205 + 6.763578z165z205z3 <= 4.90
s84 - s58 + 7.012031z84z58z3 <= 5.97
s84 - s29 + 7.319170z84z29z3 <= 5.97
s84 - s206 + 7.130504z84z206z3 <= 5.97
s84 - s99 + 7.336445z84z99z3 <= 5.97
s84 - s3 + 7.172034z84z3z3 <= 5.97
s84 - s133 + 7.591300z84z133z3 <= 5.97
s84 - s205 + 7.592446z84z205z3 <= 5.97
s109 - s204 + 7.073178z109z204z2 <= 5.79
s109 - s58 + 6.821716z109z58z2 <= 5.79
s109 - s135 + 7.086998z109z135z2 <= 5.79
s109 - s187 + 6.971047z109z187z2 <= 5.79
s109 - s88 + 6.933388z109z88z2 <= 5.79
s109 - s99 + 7.143150z109z99z2 <= 5.79
s109 - s3 + 6.977764z109z3z2 <= 5.79
s109 - s16 + 6.965938z109z16z2 <= 5.79
s109 - s133 + 7.397188z109z133z2 <= 5.79
s109 - s48 + 7.405850z109z48z2 <= 5.79
s22 - s135 + 7.130907z22z135z1 <= 5.79
s22 - s189 + 7.147908z22z189z1 <= 5.79
s22 - s29 + 7.169793z22z29z1 <= 5.79
s22 - s206 + 6.979675z22z206z1 <= 5.79
s22 - s187 + 7.014424z22z187z1 <= 5.79
s22 - s88 + 6.973208z22z88z1 <= 5.79
s22 - s66 + 7.023912z22z66z1 <= 5.79
s22 - s149 + 7.429058z22z149z1 <= 5.79
s22 - s177 + 7.433106z22z177z1 <= 5.79
s22 - s205 + 7.435433z22z205z1 <= 5.79
s169 - s206 + 7.147698z169z206z1 <= 5.98
s169 - s187 + 7.181526z169z187z1 <= 5.98
s169 - s88 + 7.138132z169z88z1 <= 5.98
s169 - s66 + 7.188552z169z66z1 <= 5.98
s169 - s149 + 7.591938z169z149z1 <= 5.98
s169 - s177 + 7.596154z169z177z1 <= 5.98
s169 - s205 + 7.598288z169z205z1 <= 5.98
s110 - s204 + 6.293326z110z204z2 <= 4.36
s110 - s58 + 6.038243z110z58z2 <= 4.36
s110 - s135 + 6.307649z110z135z2 <= 4.36
s110 - s187 + 6.147498z110z187z2 <= 4.36
s110 - s88 + 6.096726z110z88z2 <= 4.36
s110 - s99 + 6.365110z110z99z2 <= 4.36
s110 - s3 + 6.131345z110z3z2 <= 4.36
s110 - s16 + 6.065703z110z16z2 <= 4.36
s110 - s133 + 6.460558z110z133z2 <= 4.36
s110 - s48 + 6.459584z110z48z2 <= 4.36
s82 - s204 + 5.853611z82z204z2 <= 4.09
s82 - s58 + 5.795736z82z58z2 <= 4.09
s82 - s135 + 5.863605z82z135z2 <= 4.09
s82 - s187 + 5.967085z82z187z2 <= 4.09
s82 - s88 + 5.947989z82z88z2 <= 4.09
s82 - s99 + 5.905079z82z99z2 <= 4.09
s82 - s3 + 5.987282z82z3z2 <= 4.09
s82 - s16 + 5.991887z82z16z2 <= 4.09
s82 - s133 + 6.391429z82z133z2 <= 4.09
s82 - s48 + 6.403706z82z48z2 <= 4.09
s170 - s148 + 6.444359z170z148z1 <= 4.51
s170 - s148 + 6.444359z170z148z3 <= 4.51
s170 - s204 + 6.449817z170z204z3 <= 4.51
s170 - s58 + 6.194493z170z58z3 <= 4.51
s170 - s135 + 6.464070z170z135z1 <= 4.51
s170 - s189 + 6.478870z170z189z1 <= 4.51
s170 - s189 + 6.478870z170z189z3 <= 4.51
s170 - s29 + 6.502473z170z29z1 <= 4.51
s170 - s29 + 6.502473z170z29z3 <= 4.51
s170 - s206 + 6.276056z170z206z1 <= 4.51
s170 - s206 + 6.276056z170z206z3 <= 4.51
s170 - s187 + 6.300374z170z187z1 <= 4.51
s170 - s88 + 6.249619z170z88z1 <= 4.51
s170 - s99 + 6.521270z170z99z3 <= 4.51
s170 - s3 + 6.283567z170z3z3 <= 4.51
s170 - s66 + 6.286294z170z66z1 <= 4.51
s170 - s133 + 6.607495z170z133z3 <= 4.51
s170 - s149 + 6.581894z170z149z1 <= 4.51
s170 - s177 + 6.591805z170z177z1 <= 4.51
s170 - s205 + 6.586386z170z205z1 <= 4.51
s170 - s205 + 6.586386z170z205z3 <= 4.51
s18 - s148 + 6.512545z18z148z3 <= 4.59
s18 - s204 + 6.518047z18z204z3 <= 4.59
s18 - s58 + 6.262661z18z58z3 <= 4.59
s18 - s189 + 6.547286z18z189z3 <= 4.59
s18 - s29 + 6.570752z18z29z3 <= 4.59
s18 - s206 + 6.343412z18z206z3 <= 4.59
s18 - s99 + 6.589381z18z99z3 <= 4.59
s18 - s3 + 6.350658z18z3z3 <= 4.59
s18 - s133 + 6.673976z18z133z3 <= 4.59
s18 - s205 + 6.652847z18z205z3 <= 4.59
s156 - s148 + 6.312943z156z148z1 <= 4.60
s156 - s204 + 6.317283z156z204z2 <= 4.60
s156 - s58 + 6.067471z156z58z2 <= 4.60
s156 - s135 + 6.331997z156z135z1 <= 4.60
s156 - s135 + 6.331997z156z135z2 <= 4.60
s156 - s189 + 6.342044z156z189z1 <= 4.60
s156 - s29 + 6.368377z156z29z1 <= 4.60
s156 - s206 + 6.175128z156z206z1 <= 4.60
s156 - s187 + 6.205053z156z187z1 <= 4.60
s156 - s187 + 6.205053z156z187z2 <= 4.60
s156 - s88 + 6.155575z156z88z1 <= 4.60
s156 - s88 + 6.155575z156z88z2 <= 4.60
s156 - s99 + 6.390929z156z99z2 <= 4.60
s156 - s3 + 6.195865z156z3z2 <= 4.60
s156 - s66 + 6.200052z156z66z1 <= 4.60
s156 - s16 + 6.140540z156z16z2 <= 4.60
s156 - s133 + 6.572965z156z133z2 <= 4.60
s156 - s149 + 6.554575z156z149z1 <= 4.60
s156 - s177 + 6.562351z156z177z1 <= 4.60
s156 - s48 + 6.575606z156z48z2 <= 4.60
s156 - s205 + 6.560020z156z205z1 <= 4.60
s174 - s148 + 6.329823z174z148z3 <= 4.61
s174 - s204 + 6.334259z174z204z2 <= 4.61
s174 - s204 + 6.334259z174z204z3 <= 4.61
s174 - s58 + 6.083691z174z58z2 <= 4.61
s174 - s58 + 6.083691z174z58z3 <= 4.61
s174 - s135 + 6.348946z174z135z2 <= 4.61
s174 - s189 + 6.359408z174z189z3 <= 4.61
s174 - s29 + 6.385520z174z29z3 <= 4.61
s174 - s206 + 6.189591z174z206z3 <= 4.61
s174 - s187 + 6.219202z174z187z2 <= 4.61
s174 - s88 + 6.169548z174z88z2 <= 4.61
s174 - s99 + 6.407774z174z99z2 <= 4.61
s174 - s99 + 6.407774z174z99z3 <= 4.61
s174 - s3 + 6.209519z174z3z2 <= 4.61
s174 - s3 + 6.209519z174z3z3 <= 4.61
s174 - s16 + 6.153407z174z16z2 <= 4.61
s174 - s133 + 6.584319z174z133z2 <= 4.61
s174 - s133 + 6.584319z174z133z3 <= 4.61
s174 - s48 + 6.586781z174z48z2 <= 4.61
s174 - s205 + 6.570988z174z205z3 <= 4.61
s148 - s204 + 8.079429z148z204z3 <= 7.07
s148 - s135 + 8.090000z148z135z1 <= 7.07
s148 - s189 + 8.122068z148z189z1 <= 7.07
s148 - s189 + 8.122068z148z189z3 <= 7.07
s148 - s29 + 8.130369z148z29z1 <= 7.07
s148 - s29 + 8.130369z148z29z3 <= 7.07
s148 - s206 + 8.293607z148z206z1 <= 7.07
s148 - s206 + 8.293607z148z206z3 <= 7.07
s148 - s187 + 8.299396z148z187z1 <= 7.07
s148 - s88 + 8.329401z148z88z1 <= 7.07
s148 - s99 + 8.148031z148z99z3 <= 7.07
s148 - s3 + 8.332721z148z3z3 <= 7.07
s148 - s66 + 8.336667z148z66z1 <= 7.07
s148 - s133 + 8.630079z148z133z3 <= 7.07
s148 - s149 + 8.644147z148z149z1 <= 7.07
s148 - s177 + 8.641354z148z177z1 <= 7.07
s148 - s205 + 8.650651z148z205z1 <= 7.07
s148 - s205 + 8.650651z148z205z3 <= 7.07
s204 - s135 + 8.094907z204z135z2 <= 7.08
s204 - s189 + 8.122687z204z189z3 <= 7.08
s204 - s29 + 8.133333z204z29z3 <= 7.08
s204 - s206 + 8.312571z204z206z3 <= 7.08
s204 - s187 + 8.318700z204z187z2 <= 7.08
s204 - s88 + 8.348328z204z88z2 <= 7.08
s204 - s99 + 8.154535z204z99z2 <= 7.08
s204 - s99 + 8.154535z204z99z3 <= 7.08
s204 - s3 + 8.352030z204z3z2 <= 7.08
s204 - s3 + 8.352030z204z3z3 <= 7.08
s204 - s16 + 8.414132z204z16z2 <= 7.08
s204 - s133 + 8.647724z204z133z2 <= 7.08
s204 - s133 + 8.647724z204z133z3 <= 7.08
s204 - s48 + 8.663172z204z48z2 <= 7.08
s204 - s205 + 8.668633z204z205z3 <= 7.08
s58 - s206 + 8.237574z58z206z3 <= 7.09
s58 - s187 + 8.273424z58z187z2 <= 7.09
s58 - s88 + 8.243912z58z88z2 <= 7.09
s58 - s99 + 8.416871z58z99z2 <= 7.09
s58 - s99 + 8.416871z58z99z3 <= 7.09
s58 - s3 + 8.286186z58z3z2 <= 7.09
s58 - s3 + 8.286186z58z3z3 <= 7.09
s58 - s16 + 8.287428z58z16z2 <= 7.09
s58 - s133 + 8.704528z58z133z2 <= 7.09
s58 - s133 + 8.704528z58z133z3 <= 7.09
s58 - s48 + 8.714144z58z48z2 <= 7.09
s58 - s205 + 8.708421z58z205z3 <= 7.09
s135 - s29 + 8.190552z135z29z1 <= 7.15
s135 - s187 + 8.395945z135z187z1 <= 7.15
s135 - s187 + 8.395945z135z187z2 <= 7.15
s135 - s88 + 8.427528z135z88z1 <= 7.15
s135 - s88 + 8.427528z135z88z2 <= 7.15
s135 - s99 + 8.209629z135z99z2 <= 7.15
s135 - s3 + 8.429205z135z3z2 <= 7.15
s135 - s66 + 8.432921z135z66z1 <= 7.15
s135 - s16 + 8.492864z135z16z2 <= 7.15
s135 - s133 + 8.713521z135z133z2 <= 7.15
s135 - s149 + 8.728888z135z149z1 <= 7.15
s135 - s177 + 8.725655z135z177z1 <= 7.15
s135 - s48 + 8.729233z135z48z2 <= 7.15
s135 - s205 + 8.735339z135z205z1 <= 7.15
s189 - s29 + 8.183333z189z29z1 <= 7.15
s189 - s29 + 8.183333z189z29z3 <= 7.15
s189 - s88 + 8.460197z189z88z1 <= 7.15
s189 - s99 + 8.218637z189z99z3 <= 7.15
s189 - s3 + 8.464678z189z3z3 <= 7.15
s189 - s66 + 8.468678z189z66z1 <= 7.15
s189 - s133 + 8.750185z189z133z3 <= 7.15
s189 - s149 + 8.766297z189z149z1 <= 7.15
s189 - s177 + 8.762826z189z177z1 <= 7.15
s189 - s205 + 8.772718z189z205z1 <= 7.15
s189 - s205 + 8.772718z189z205z3 <= 7.15
s29 - s99 + 8.375901z29z99z3 <= 7.34
s29 - s133 + 8.918888z29z133z3 <= 7.34
s29 - s149 + 8.936621z29z149z1 <= 7.34
s29 - s177 + 8.932584z29z177z1 <= 7.34
s29 - s205 + 8.942956z29z205z1 <= 7.34
s29 - s205 + 8.942956z29z205z3 <= 7.34
s206 - s187 + 8.385900z206z187z1 <= 7.35
s206 - s88 + 8.385900z206z88z1 <= 7.35
s206 - s3 + 8.404975z206z3z3 <= 7.35
s206 - s66 + 8.411464z206z66z1 <= 7.35
s206 - s133 + 8.817286z206z133z3 <= 7.35
s206 - s149 + 8.815808z206z149z1 <= 7.35
s206 - s177 + 8.818093z206z177z1 <= 7.35
s206 - s205 + 8.822393z206z205z1 <= 7.35
s206 - s205 + 8.822393z206z205z3 <= 7.35
s187 - s88 + 8.460772z187z88z1 <= 7.41
s187 - s88 + 8.460772z187z88z2 <= 7.41
s187 - s3 + 8.443333z187z3z2 <= 7.41
s187 - s66 + 8.447712z187z66z1 <= 7.41
s187 - s16 + 8.511980z187z16z2 <= 7.41
s187 - s133 + 8.841741z187z133z2 <= 7.41
s187 - s149 + 8.840864z187z149z1 <= 7.41
s187 - s177 + 8.842922z187z177z1 <= 7.41
s187 - s48 + 8.851915z187z48z2 <= 7.41
s187 - s205 + 8.847467z187z205z1 <= 7.41
s88 - s3 + 8.554722z88z3z2 <= 7.51
s88 - s66 + 8.560772z88z66z1 <= 7.51
s88 - s16 + 8.576667z88z16z2 <= 7.51
s88 - s133 + 8.973801z88z133z2 <= 7.51
s88 - s149 + 8.969227z88z149z1 <= 7.51
s88 - s177 + 8.972506z88z177z1 <= 7.51
s88 - s48 + 8.982534z88z48z2 <= 7.51
s88 - s205 + 8.975714z88z205z1 <= 7.51
s99 - s16 + 8.901634z99z16z2 <= 7.52
s99 - s133 + 9.070435z99z133z2 <= 7.52
s99 - s133 + 9.070435z99z133z3 <= 7.52
s99 - s48 + 9.087137z99z48z2 <= 7.52
s99 - s205 + 9.095847z99z205z3 <= 7.52
s3 - s16 + 8.633333z3z16z2 <= 7.56
s3 - s133 + 8.979576z3z133z2 <= 7.56
s3 - s133 + 8.979576z3z133z3 <= 7.56
s3 - s48 + 8.988589z3z48z2 <= 7.56
s3 - s205 + 8.982322z3z205z3 <= 7.56
s66 - s149 + 8.989281z66z149z1 <= 7.58
s66 - s177 + 8.992311z66z177z1 <= 7.58
s66 - s205 + 8.995799z66z205z1 <= 7.58
s16 - s133 + 9.357214z16z133z2 <= 7.91
s16 - s48 + 9.363529z16z48z2 <= 7.91
s133 - s48 + 9.698856z133z48z2 <= 8.68
s149 - s205 + 9.706667z149z205z1 <= 8.70
s177 - s205 + 9.714907z177z205z1 <= 8.70

x104x148x1 - 1z104z148z1 <= 0
x104x135x1 - 1z104z135z1 <= 0
x104x189x1 - 1z104z189z1 <= 0
x104x29x1 - 1z104z29z1 <= 0
x104x206x1 - 1z104z206z1 <= 0
x104x187x1 - 1z104z187z1 <= 0
x104x88x1 - 1z104z88z1 <= 0
x104x66x1 - 2z104z66z1 <= 0
x104x149x1 - 2z104z149z1 <= 0
x104x177x1 - 2z104z177z1 <= 0
x104x205x1 - 1z104z205z1 <= 0
x4x204x2 - 1z4z204z2 <= 0
x4x58x2 - 1z4z58z2 <= 0
x4x135x2 - 1z4z135z2 <= 0
x4x187x2 - 1z4z187z2 <= 0
x4x88x2 - 1z4z88z2 <= 0
x4x99x2 - 1z4z99z2 <= 0
x4x3x2 - 1z4z3z2 <= 0
x4x16x2 - 2z4z16z2 <= 0
x4x133x2 - 1z4z133z2 <= 0
x4x48x2 - 2z4z48z2 <= 0
x165x148x3 - 1z165z148z3 <= 0
x165x204x3 - 1z165z204z3 <= 0
x165x58x3 - 1z165z58z3 <= 0
x165x189x3 - 1z165z189z3 <= 0
x165x29x3 - 1z165z29z3 <= 0
x165x206x3 - 1z165z206z3 <= 0
x165x99x3 - 1z165z99z3 <= 0
x165x3x3 - 1z165z3z3 <= 0
x165x133x3 - 1z165z133z3 <= 0
x165x205x3 - 1z165z205z3 <= 0
x84x58x3 - 1z84z58z3 <= 0
x84x29x3 - 1z84z29z3 <= 0
x84x206x3 - 1z84z206z3 <= 0
x84x99x3 - 1z84z99z3 <= 0
x84x3x3 - 1z84z3z3 <= 0
x84x133x3 - 1z84z133z3 <= 0
x84x205x3 - 1z84z205z3 <= 0
x109x204x2 - 1z109z204z2 <= 0
x109x58x2 - 1z109z58z2 <= 0
x109x135x2 - 1z109z135z2 <= 0
x109x187x2 - 1z109z187z2 <= 0
x109x88x2 - 1z109z88z2 <= 0
x109x99x2 - 1z109z99z2 <= 0
x109x3x2 - 1z109z3z2 <= 0
x109x16x2 - 2z109z16z2 <= 0
x109x133x2 - 1z109z133z2 <= 0
x109x48x2 - 2z109z48z2 <= 0
x22x135x1 - 1z22z135z1 <= 0
x22x189x1 - 1z22z189z1 <= 0
x22x29x1 - 1z22z29z1 <= 0
x22x206x1 - 1z22z206z1 <= 0
x22x187x1 - 1z22z187z1 <= 0
x22x88x1 - 1z22z88z1 <= 0
x22x66x1 - 2z22z66z1 <= 0
x22x149x1 - 2z22z149z1 <= 0
x22x177x1 - 2z22z177z1 <= 0
x22x205x1 - 1z22z205z1 <= 0
x169x206x1 - 1z169z206z1 <= 0
x169x187x1 - 1z169z187z1 <= 0
x169x88x1 - 1z169z88z1 <= 0
x169x66x1 - 2z169z66z1 <= 0
x169x149x1 - 2z169z149z1 <= 0
x169x177x1 - 2z169z177z1 <= 0
x169x205x1 - 1z169z205z1 <= 0
x110x204x2 - 1z110z204z2 <= 0
x110x58x2 - 1z110z58z2 <= 0
x110x135x2 - 1z110z135z2 <= 0
x110x187x2 - 1z110z187z2 <= 0
x110x88x2 - 1z110z88z2 <= 0
x110x99x2 - 1z110z99z2 <= 0
x110x3x2 - 1z110z3z2 <= 0
x110x16x2 - 2z110z16z2 <= 0
x110x133x2 - 1z110z133z2 <= 0
x110x48x2 - 2z110z48z2 <= 0
x82x204x2 - 1z82z204z2 <= 0
x82x58x2 - 1z82z58z2 <= 0
x82x135x2 - 1z82z135z2 <= 0
x82x187x2 - 1z82z187z2 <= 0
x82x88x2 - 1z82z88z2 <= 0
x82x99x2 - 1z82z99z2 <= 0
x82x3x2 - 1z82z3z2 <= 0
x82x16x2 - 2z82z16z2 <= 0
x82x133x2 - 1z82z133z2 <= 0
x82x48x2 - 2z82z48z2 <= 0
x170x148x1 - 1z170z148z1 <= 0
x170x148x3 - 1z170z148z3 <= 0
x170x204x3 - 1z170z204z3 <= 0
x170x58x3 - 1z170z58z3 <= 0
x170x135x1 - 1z170z135z1 <= 0
x170x189x1 - 1z170z189z1 <= 0
x170x189x3 - 1z170z189z3 <= 0
x170x29x1 - 1z170z29z1 <= 0
x170x29x3 - 1z170z29z3 <= 0
x170x206x1 - 1z170z206z1 <= 0
x170x206x3 - 1z170z206z3 <= 0
x170x187x1 - 1z170z187z1 <= 0
x170x88x1 - 1z170z88z1 <= 0
x170x99x3 - 1z170z99z3 <= 0
x170x3x3 - 1z170z3z3 <= 0
x170x66x1 - 2z170z66z1 <= 0
x170x133x3 - 1z170z133z3 <= 0
x170x149x1 - 2z170z149z1 <= 0
x170x177x1 - 2z170z177z1 <= 0
x170x205x1 - 1z170z205z1 <= 0
x170x205x3 - 1z170z205z3 <= 0
x18x148x3 - 1z18z148z3 <= 0
x18x204x3 - 1z18z204z3 <= 0
x18x58x3 - 1z18z58z3 <= 0
x18x189x3 - 1z18z189z3 <= 0
x18x29x3 - 1z18z29z3 <= 0
x18x206x3 - 1z18z206z3 <= 0
x18x99x3 - 1z18z99z3 <= 0
x18x3x3 - 1z18z3z3 <= 0
x18x133x3 - 1z18z133z3 <= 0
x18x205x3 - 1z18z205z3 <= 0
x156x148x1 - 1z156z148z1 <= 0
x156x204x2 - 1z156z204z2 <= 0
x156x58x2 - 1z156z58z2 <= 0
x156x135x1 - 1z156z135z1 <= 0
x156x135x2 - 1z156z135z2 <= 0
x156x189x1 - 1z156z189z1 <= 0
x156x29x1 - 1z156z29z1 <= 0
x156x206x1 - 1z156z206z1 <= 0
x156x187x1 - 1z156z187z1 <= 0
x156x187x2 - 1z156z187z2 <= 0
x156x88x1 - 1z156z88z1 <= 0
x156x88x2 - 1z156z88z2 <= 0
x156x99x2 - 1z156z99z2 <= 0
x156x3x2 - 1z156z3z2 <= 0
x156x66x1 - 2z156z66z1 <= 0
x156x16x2 - 2z156z16z2 <= 0
x156x133x2 - 1z156z133z2 <= 0
x156x149x1 - 2z156z149z1 <= 0
x156x177x1 - 2z156z177z1 <= 0
x156x48x2 - 2z156z48z2 <= 0
x156x205x1 - 1z156z205z1 <= 0
x174x148x3 - 1z174z148z3 <= 0
x174x204x2 - 1z174z204z2 <= 0
x174x204x3 - 1z174z204z3 <= 0
x174x58x2 - 1z174z58z2 <= 0
x174x58x3 - 1z174z58z3 <= 0
x174x135x2 - 1z174z135z2 <= 0
x174x189x3 - 1z174z189z3 <= 0
x174x29x3 - 1z174z29z3 <= 0
x174x206x3 - 1z174z206z3 <= 0
x174x187x2 - 1z174z187z2 <= 0
x174x88x2 - 1z174z88z2 <= 0
x174x99x2 - 1z174z99z2 <= 0
x174x99x3 - 1z174z99z3 <= 0
x174x3x2 - 1z174z3z2 <= 0
x174x3x3 - 1z174z3z3 <= 0
x174x16x2 - 2z174z16z2 <= 0
x174x133x2 - 1z174z133z2 <= 0
x174x133x3 - 1z174z133z3 <= 0
x174x48x2 - 2z174z48z2 <= 0
x174x205x3 - 1z174z205z3 <= 0
x148x204x3 - 1z148z204z3 <= 0
x148x135x1 - 1z148z135z1 <= 0
x148x189x1 - 1z148z189z1 <= 0
x148x189x3 - 1z148z189z3 <= 0
x148x29x1 - 1z148z29z1 <= 0
x148x29x3 - 1z148z29z3 <= 0
x148x206x1 - 1z148z206z1 <= 0
x148x206x3 - 1z148z206z3 <= 0
x148x187x1 - 1z148z187z1 <= 0
x148x88x1 - 1z148z88z1 <= 0
x148x99x3 - 1z148z99z3 <= 0
x148x3x3 - 1z148z3z3 <= 0
x148x66x1 - 2z148z66z1 <= 0
x148x133x3 - 1z148z133z3 <= 0
x148x149x1 - 2z148z149z1 <= 0
x148x177x1 - 2z148z177z1 <= 0
x148x205x1 - 1z148z205z1 <= 0
x148x205x3 - 1z148z205z3 <= 0
x148x0x1 <= 1
x148x0x3 <= 1
x204x135x2 - 1z204z135z2 <= 0
x204x189x3 - 1z204z189z3 <= 0
x204x29x3 - 1z204z29z3 <= 0
x204x206x3 - 1z204z206z3 <= 0
x204x187x2 - 1z204z187z2 <= 0
x204x88x2 - 1z204z88z2 <= 0
x204x99x2 - 1z204z99z2 <= 0
x204x99x3 - 1z204z99z3 <= 0
x204x3x2 - 1z204z3z2 <= 0
x204x3x3 - 1z204z3z3 <= 0
x204x16x2 - 2z204z16z2 <= 0
x204x133x2 - 1z204z133z2 <= 0
x204x133x3 - 1z204z133z3 <= 0
x204x48x2 - 2z204z48z2 <= 0
x204x205x3 - 1z204z205z3 <= 0
x204x0x2 <= 1
x204x0x3 <= 1
x58x206x3 - 1z58z206z3 <= 0
x58x187x2 - 1z58z187z2 <= 0
x58x88x2 - 1z58z88z2 <= 0
x58x99x2 - 1z58z99z2 <= 0
x58x99x3 - 1z58z99z3 <= 0
x58x3x2 - 1z58z3z2 <= 0
x58x3x3 - 1z58z3z3 <= 0
x58x16x2 - 2z58z16z2 <= 0
x58x133x2 - 1z58z133z2 <= 0
x58x133x3 - 1z58z133z3 <= 0
x58x48x2 - 2z58z48z2 <= 0
x58x205x3 - 1z58z205z3 <= 0
x58x0x2 <= 1
x58x0x3 <= 1
x135x29x1 - 1z135z29z1 <= 0
x135x187x1 - 1z135z187z1 <= 0
x135x187x2 - 1z135z187z2 <= 0
x135x88x1 - 1z135z88z1 <= 0
x135x88x2 - 1z135z88z2 <= 0
x135x99x2 - 1z135z99z2 <= 0
x135x3x2 - 1z135z3z2 <= 0
x135x66x1 - 2z135z66z1 <= 0
x135x16x2 - 2z135z16z2 <= 0
x135x133x2 - 1z135z133z2 <= 0
x135x149x1 - 2z135z149z1 <= 0
x135x177x1 - 2z135z177z1 <= 0
x135x48x2 - 2z135z48z2 <= 0
x135x205x1 - 1z135z205z1 <= 0
x135x0x1 <= 1
x135x0x2 <= 1
x189x29x1 - 1z189z29z1 <= 0
x189x29x3 - 1z189z29z3 <= 0
x189x88x1 - 1z189z88z1 <= 0
x189x99x3 - 1z189z99z3 <= 0
x189x3x3 - 1z189z3z3 <= 0
x189x66x1 - 2z189z66z1 <= 0
x189x133x3 - 1z189z133z3 <= 0
x189x149x1 - 2z189z149z1 <= 0
x189x177x1 - 2z189z177z1 <= 0
x189x205x1 - 1z189z205z1 <= 0
x189x205x3 - 1z189z205z3 <= 0
x189x0x1 <= 1
x189x0x3 <= 1
x29x99x3 - 1z29z99z3 <= 0
x29x133x3 - 1z29z133z3 <= 0
x29x149x1 - 2z29z149z1 <= 0
x29x177x1 - 2z29z177z1 <= 0
x29x205x1 - 1z29z205z1 <= 0
x29x205x3 - 1z29z205z3 <= 0
x29x0x1 <= 1
x29x0x3 <= 1
x206x187x1 - 1z206z187z1 <= 0
x206x88x1 - 1z206z88z1 <= 0
x206x3x3 - 1z206z3z3 <= 0
x206x66x1 - 2z206z66z1 <= 0
x206x133x3 - 1z206z133z3 <= 0
x206x149x1 - 2z206z149z1 <= 0
x206x177x1 - 2z206z177z1 <= 0
x206x205x1 - 1z206z205z1 <= 0
x206x205x3 - 1z206z205z3 <= 0
x206x0x1 <= 1
x206x0x3 <= 1
x187x88x1 - 1z187z88z1 <= 0
x187x88x2 - 1z187z88z2 <= 0
x187x3x2 - 1z187z3z2 <= 0
x187x66x1 - 2z187z66z1 <= 0
x187x16x2 - 2z187z16z2 <= 0
x187x133x2 - 1z187z133z2 <= 0
x187x149x1 - 2z187z149z1 <= 0
x187x177x1 - 2z187z177z1 <= 0
x187x48x2 - 2z187z48z2 <= 0
x187x205x1 - 1z187z205z1 <= 0
x187x0x1 <= 1
x187x0x2 <= 1
x88x3x2 - 1z88z3z2 <= 0
x88x66x1 - 2z88z66z1 <= 0
x88x16x2 - 2z88z16z2 <= 0
x88x133x2 - 1z88z133z2 <= 0
x88x149x1 - 2z88z149z1 <= 0
x88x177x1 - 2z88z177z1 <= 0
x88x48x2 - 2z88z48z2 <= 0
x88x205x1 - 1z88z205z1 <= 0
x88x0x1 <= 1
x88x0x2 <= 1
x99x16x2 - 2z99z16z2 <= 0
x99x133x2 - 1z99z133z2 <= 0
x99x133x3 - 1z99z133z3 <= 0
x99x48x2 - 2z99z48z2 <= 0
x99x205x3 - 1z99z205z3 <= 0
x99x0x2 <= 1
x99x0x3 <= 1
x3x16x2 - 2z3z16z2 <= 0
x3x133x2 - 1z3z133z2 <= 0
x3x133x3 - 1z3z133z3 <= 0
x3x48x2 - 2z3z48z2 <= 0
x3x205x3 - 1z3z205z3 <= 0
x3x0x2 <= 1
x3x0x3 <= 1
x66x149x1 - 2z66z149z1 <= 0
x66x177x1 - 2z66z177z1 <= 0
x66x205x1 - 1z66z205z1 <= 0
x66x0x1 <= 2
x16x133x2 - 1z16z133z2 <= 0
x16x48x2 - 2z16z48z2 <= 0
x16x0x2 <= 2
x133x48x2 - 2z133z48z2 <= 0
x133x0x2 <= 1
x133x0x3 <= 1
x149x205x1 - 1z149z205z1 <= 0
x149x0x1 <= 2
x177x205x1 - 1z177z205z1 <= 0
x177x0x1 <= 2
x48x0x2 <= 2
x205x0x1 <= 1
x205x0x3 <= 1

Bounds
s104 = 5.198641
s4 = 4.963370
s165 = 4.895758
s84 = 5.971479
s109 = 5.785815
s22 = 5.794323
s169 = 5.982640
s110 = 4.364910
s82 = 4.087060
s170 = 4.510550
s18 = 4.586430
s156 = 4.598240
s174 = 4.610780
6.070000 <= s148 <= 7.070000
6.080000 <= s204 <= 7.080000
6.090000 <= s58 <= 7.090000
6.150000 <= s135 <= 7.150000
6.150000 <= s189 <= 7.150000
6.340000 <= s29 <= 7.340000
6.350000 <= s206 <= 7.350000
6.410000 <= s187 <= 7.410000
6.510000 <= s88 <= 7.510000
6.520000 <= s99 <= 7.520000
6.560000 <= s3 <= 7.560000
6.580000 <= s66 <= 7.580000
6.910000 <= s16 <= 7.910000
7.680000 <= s133 <= 8.680000
7.700000 <= s149 <= 8.700000
7.700000 <= s177 <= 8.700000
7.720000 <= s48 <= 8.720000
7.720000 <= s205 <= 8.720000

General
x104x148x1 x104x135x1 x104x189x1 x104x29x1 x104x206x1 x104x187x1 x104x88x1 x104x66x1 x104x149x1 x104x177x1 x104x205x1 
x4x204x2 x4x58x2 x4x135x2 x4x187x2 x4x88x2 x4x99x2 x4x3x2 x4x16x2 x4x133x2 x4x48x2 
x165x148x3 x165x204x3 x165x58x3 x165x189x3 x165x29x3 x165x206x3 x165x99x3 x165x3x3 x165x133x3 x165x205x3 
x84x58x3 x84x29x3 x84x206x3 x84x99x3 x84x3x3 x84x133x3 x84x205x3 
x109x204x2 x109x58x2 x109x135x2 x109x187x2 x109x88x2 x109x99x2 x109x3x2 x109x16x2 x109x133x2 x109x48x2 
x22x135x1 x22x189x1 x22x29x1 x22x206x1 x22x187x1 x22x88x1 x22x66x1 x22x149x1 x22x177x1 x22x205x1 
x169x206x1 x169x187x1 x169x88x1 x169x66x1 x169x149x1 x169x177x1 x169x205x1 
x110x204x2 x110x58x2 x110x135x2 x110x187x2 x110x88x2 x110x99x2 x110x3x2 x110x16x2 x110x133x2 x110x48x2 
x82x204x2 x82x58x2 x82x135x2 x82x187x2 x82x88x2 x82x99x2 x82x3x2 x82x16x2 x82x133x2 x82x48x2 
x170x148x1 x170x148x3 x170x204x3 x170x58x3 x170x135x1 x170x189x1 x170x189x3 x170x29x1 x170x29x3 x170x206x1 x170x206x3 x170x187x1 x170x88x1 x170x99x3 x170x3x3 x170x66x1 x170x133x3 x170x149x1 x170x177x1 x170x205x1 x170x205x3 
x18x148x3 x18x204x3 x18x58x3 x18x189x3 x18x29x3 x18x206x3 x18x99x3 x18x3x3 x18x133x3 x18x205x3 
x156x148x1 x156x204x2 x156x58x2 x156x135x1 x156x135x2 x156x189x1 x156x29x1 x156x206x1 x156x187x1 x156x187x2 x156x88x1 x156x88x2 x156x99x2 x156x3x2 x156x66x1 x156x16x2 x156x133x2 x156x149x1 x156x177x1 x156x48x2 x156x205x1 
x174x148x3 x174x204x2 x174x204x3 x174x58x2 x174x58x3 x174x135x2 x174x189x3 x174x29x3 x174x206x3 x174x187x2 x174x88x2 x174x99x2 x174x99x3 x174x3x2 x174x3x3 x174x16x2 x174x133x2 x174x133x3 x174x48x2 x174x205x3 
x148x204x3 x148x135x1 x148x189x1 x148x189x3 x148x29x1 x148x29x3 x148x206x1 x148x206x3 x148x187x1 x148x88x1 x148x99x3 x148x3x3 x148x66x1 x148x133x3 x148x149x1 x148x177x1 x148x205x1 x148x205x3 x148x0x1 x148x0x3 
x204x135x2 x204x189x3 x204x29x3 x204x206x3 x204x187x2 x204x88x2 x204x99x2 x204x99x3 x204x3x2 x204x3x3 x204x16x2 x204x133x2 x204x133x3 x204x48x2 x204x205x3 x204x0x2 x204x0x3 
x58x206x3 x58x187x2 x58x88x2 x58x99x2 x58x99x3 x58x3x2 x58x3x3 x58x16x2 x58x133x2 x58x133x3 x58x48x2 x58x205x3 x58x0x2 x58x0x3 
x135x29x1 x135x187x1 x135x187x2 x135x88x1 x135x88x2 x135x99x2 x135x3x2 x135x66x1 x135x16x2 x135x133x2 x135x149x1 x135x177x1 x135x48x2 x135x205x1 x135x0x1 x135x0x2 
x189x29x1 x189x29x3 x189x88x1 x189x99x3 x189x3x3 x189x66x1 x189x133x3 x189x149x1 x189x177x1 x189x205x1 x189x205x3 x189x0x1 x189x0x3 
x29x99x3 x29x133x3 x29x149x1 x29x177x1 x29x205x1 x29x205x3 x29x0x1 x29x0x3 
x206x187x1 x206x88x1 x206x3x3 x206x66x1 x206x133x3 x206x149x1 x206x177x1 x206x205x1 x206x205x3 x206x0x1 x206x0x3 
x187x88x1 x187x88x2 x187x3x2 x187x66x1 x187x16x2 x187x133x2 x187x149x1 x187x177x1 x187x48x2 x187x205x1 x187x0x1 x187x0x2 
x88x3x2 x88x66x1 x88x16x2 x88x133x2 x88x149x1 x88x177x1 x88x48x2 x88x205x1 x88x0x1 x88x0x2 
x99x16x2 x99x133x2 x99x133x3 x99x48x2 x99x205x3 x99x0x2 x99x0x3 
x3x16x2 x3x133x2 x3x133x3 x3x48x2 x3x205x3 x3x0x2 x3x0x3 
x66x149x1 x66x177x1 x66x205x1 x66x0x1 
x16x133x2 x16x48x2 x16x0x2 
x133x48x2 x133x0x2 x133x0x3 
x149x205x1 x149x0x1 
x177x205x1 x177x0x1 
x48x0x2 
x205x0x1 x205x0x3 

Binaries
y148 y204 y58 y135 y189 y29 y206 y187 y88 y99 y3 y66 y16 y133 y149 y177 y48 y205 
z104z148z1 z104z135z1 z104z189z1 z104z29z1 z104z206z1 z104z187z1 z104z88z1 z104z66z1 z104z149z1 z104z177z1 z104z205z1 
z4z204z2 z4z58z2 z4z135z2 z4z187z2 z4z88z2 z4z99z2 z4z3z2 z4z16z2 z4z133z2 z4z48z2 
z165z148z3 z165z204z3 z165z58z3 z165z189z3 z165z29z3 z165z206z3 z165z99z3 z165z3z3 z165z133z3 z165z205z3 
z84z58z3 z84z29z3 z84z206z3 z84z99z3 z84z3z3 z84z133z3 z84z205z3 
z109z204z2 z109z58z2 z109z135z2 z109z187z2 z109z88z2 z109z99z2 z109z3z2 z109z16z2 z109z133z2 z109z48z2 
z22z135z1 z22z189z1 z22z29z1 z22z206z1 z22z187z1 z22z88z1 z22z66z1 z22z149z1 z22z177z1 z22z205z1 
z169z206z1 z169z187z1 z169z88z1 z169z66z1 z169z149z1 z169z177z1 z169z205z1 
z110z204z2 z110z58z2 z110z135z2 z110z187z2 z110z88z2 z110z99z2 z110z3z2 z110z16z2 z110z133z2 z110z48z2 
z82z204z2 z82z58z2 z82z135z2 z82z187z2 z82z88z2 z82z99z2 z82z3z2 z82z16z2 z82z133z2 z82z48z2 
z170z148z1 z170z148z3 z170z204z3 z170z58z3 z170z135z1 z170z189z1 z170z189z3 z170z29z1 z170z29z3 z170z206z1 z170z206z3 z170z187z1 z170z88z1 z170z99z3 z170z3z3 z170z66z1 z170z133z3 z170z149z1 z170z177z1 z170z205z1 z170z205z3 
z18z148z3 z18z204z3 z18z58z3 z18z189z3 z18z29z3 z18z206z3 z18z99z3 z18z3z3 z18z133z3 z18z205z3 
z156z148z1 z156z204z2 z156z58z2 z156z135z1 z156z135z2 z156z189z1 z156z29z1 z156z206z1 z156z187z1 z156z187z2 z156z88z1 z156z88z2 z156z99z2 z156z3z2 z156z66z1 z156z16z2 z156z133z2 z156z149z1 z156z177z1 z156z48z2 z156z205z1 
z174z148z3 z174z204z2 z174z204z3 z174z58z2 z174z58z3 z174z135z2 z174z189z3 z174z29z3 z174z206z3 z174z187z2 z174z88z2 z174z99z2 z174z99z3 z174z3z2 z174z3z3 z174z16z2 z174z133z2 z174z133z3 z174z48z2 z174z205z3 
z148z204z3 z148z135z1 z148z189z1 z148z189z3 z148z29z1 z148z29z3 z148z206z1 z148z206z3 z148z187z1 z148z88z1 z148z99z3 z148z3z3 z148z66z1 z148z133z3 z148z149z1 z148z177z1 z148z205z1 z148z205z3 
z204z135z2 z204z189z3 z204z29z3 z204z206z3 z204z187z2 z204z88z2 z204z99z2 z204z99z3 z204z3z2 z204z3z3 z204z16z2 z204z133z2 z204z133z3 z204z48z2 z204z205z3 
z58z206z3 z58z187z2 z58z88z2 z58z99z2 z58z99z3 z58z3z2 z58z3z3 z58z16z2 z58z133z2 z58z133z3 z58z48z2 z58z205z3 
z135z29z1 z135z187z1 z135z187z2 z135z88z1 z135z88z2 z135z99z2 z135z3z2 z135z66z1 z135z16z2 z135z133z2 z135z149z1 z135z177z1 z135z48z2 z135z205z1 
z189z29z1 z189z29z3 z189z88z1 z189z99z3 z189z3z3 z189z66z1 z189z133z3 z189z149z1 z189z177z1 z189z205z1 z189z205z3 
z29z99z3 z29z133z3 z29z149z1 z29z177z1 z29z205z1 z29z205z3 
z206z187z1 z206z88z1 z206z3z3 z206z66z1 z206z133z3 z206z149z1 z206z177z1 z206z205z1 z206z205z3 
z187z88z1 z187z88z2 z187z3z2 z187z66z1 z187z16z2 z187z133z2 z187z149z1 z187z177z1 z187z48z2 z187z205z1 
z88z3z2 z88z66z1 z88z16z2 z88z133z2 z88z149z1 z88z177z1 z88z48z2 z88z205z1 
z99z16z2 z99z133z2 z99z133z3 z99z48z2 z99z205z3 
z3z16z2 z3z133z2 z3z133z3 z3z48z2 z3z205z3 
z66z149z1 z66z177z1 z66z205z1 
z16z133z2 z16z48z2 
z133z48z2 
z149z205z1 
z177z205z1 



End